[1, 2, 4, 5, 5, 6, 6, 12, 16, 10, 15, 16, 12, 15, 15, 17, 17, 20, 21, 19, 18, 20, 21, 118, 25, 25, 27, 28, 32, 32, 31, 30, 33, 33, 30, 73, 53, 65, 42, 43, 42, 43, 43, 45, 44, 82, 133, 144, 79, 54, 53, 55, 55, 55, 54, 56, 58, 59, 61, 60, 61, 62, 62, 63, 63, 66, 67, 69, 68, 71, 74, 73, 71, 72, 76, 74, 73, 71, 69, 80, 81, 193, 88, 84, 85, 86, 87, 95, 91, 99, 98, 100, 88, 97, 92, 89, 94, 90, 93, 96, 101, 160, 106, 105, 104, 103, 82, 109, 112, 115, 114, 110, 113, 111, 108, 113, 111, 136, 103, 121, 120, 122, 153, 94, 213, 166, 158, 65, 214, 130, 130, 133, 134, 135, 138, 136, 134, 137, 138, 139, 138, 141, 137, 83, 174, 205, 137, 194, 138, 129, 158, 172, 169, 151, 156, 156, 159, 152, 153, 163, 164, 163, 163, 164, 165, 166, 167, 166, 169, 160, 173, 170, 165, 182, 181, 178, 177, 180, 179, 176, 177, 178, 180, 183, 187, 187, 189, 189, 188, 186, 186, 192, 182, 125, 75, 212, 199, 198, 198, 150, 118, 202, 203, 186, 208, 207, 208, 208, 209, 209, 212, 211, 213, 214, 216, 216, 219, 218, 217, 218, 218, 213, 216, 219, 233, 225, 227, 229, 229, 231, 231, 231, 229, 234, 235, 236, 239, 239, 240, 245, 240, 244, 241, 243, 242, 241, 242, 248, 249, 251, 250, 253, 252, 255, 254, 256, 258, 257, 259, 260, 261, 262, 263, 264, 265, 271, 267, 269, 271, 270, 268, 272, 272, 277, 275, 276, 274, 278, 71, 196]
[64, 64, 78, 81, 81, 82, 91, 117, 117, 149, 152, 152, 159, 159, 193, 212, 212, 212, 232, 258, 268, 270, 270]
